
   AbsCon 1.41 (January, 2014) - defaultConfiguration

   
   instance
        framework=CSP  name=Isomorphism-/cluster/gpg/ciaran/sip-benchmarks/benchmarks/meshes-CVIU11/patterns/pattern1-/cluster/gpg/ciaran/sip-benchmarks/benchmarks/meshes-CVIU11/targets/target205
        parameters=/cluster/gpg/ciaran/sip-benchmarks/benchmarks/meshes-CVIU11/patterns/pattern1,/cluster/gpg/ciaran/sip-benchmarks/benchmarks/meshes-CVIU11/targets/target205
      

   loading variables...
        nbVariables=49  nbDomainTypes=1  nbTotalValues=47187  domainSizes=(963:49)
          =>  wckTime=0.208  cpuTime=0.326  mem=12M331

   loading objectives...

   loading constraints...
        nbConstraints=137  nbSpecificConstraints=1  nbExtensionStructures=(1,shared:135)  nbConflictsStructures=(1,shared:135,unbuilt:1)
        degrees=(5:8)(6:8)(7:32)(9:1)  arities=(2:136)(49:1)  types=(AllDifferent:1)(ConstraintHardExtensionV-Bits:136)
          =>  wckTime=0.341  cpuTime=0.446  mem=18M42

   INFO : <!-- Start saving the XML representation -->

   INFO : <!-- Stop saving the XML representation of target205.xml -->

   Solver SolverBacktrack being built... 
          =>  wckTime=0.762  cpuTime=0.828  mem=60M608

   
   search
        run=0  nbConstraintChecks=0  depth=(min:0,max:0,avg:1)  nbEffectivePropagations=7439  nbRevisions=38397  nbUselessRevisions=30959
        nbAssignments=860  nbFailedAssignments=860  nbBacktracks=1  nbVisitedNodes=1721  nbRestartNogoods=0
          =>  wckTime=14.447  cpuTime=15.067  mem=307M316

   
   global
        nbConstraintChecks=0  nbEffectivePropagations=7439  nbRevisions=38397  nbUselessRevisions=30959  nbRestartNogoods=0  solvingWckTime=14.448
        expiredTime=no  totalExploration=yes  nbFoundSolutions=0  Stop=FULL_EXPLORATION
          =>  wckTime=15.21  cpuTime=15.067  mem=307M316

s UNSATISFIABLE
d NODES 860

   totalWckTime=15.098  totalCpuTime=15.068
